(set-option :produce-models true)
(set-logic QF_UF)
(declare-fun p2() Bool)
(declare-fun p1() Bool)
(declare-fun p18() Bool)
(declare-fun p7() Bool)
(declare-fun p15() Bool)
(declare-fun p10() Bool)
(declare-fun p22() Bool)
(declare-fun p19() Bool)
(declare-fun p23() Bool)
(declare-fun p14() Bool)
(declare-fun p6() Bool)
(declare-fun p11() Bool)
(declare-fun p4() Bool)
(declare-fun p3() Bool)
(declare-fun p24() Bool)
(declare-fun p17() Bool)
(declare-fun p5() Bool)
(declare-fun p9() Bool)
(declare-fun p12() Bool)
(declare-fun p20() Bool)
(declare-fun p8() Bool)
(declare-fun p16() Bool)
(declare-fun p13() Bool)
(declare-fun p21() Bool)
(declare-fun p0() Bool)
(assert
(and (or (not p2) p1 (not p18)) (or (not p7) p15 (not p10)) (or p22 p15 (not p19)) (or p23 (not p14) p6) (or p22 p6 p2) (or (not p11) (not p4) p18) (or (not p3) (not p24) p14) (or (not p10) (not p17) p23) (or p22 (not p5) p3) (or p9 p22 p23) (or p10 p10 (not p17)) (or p12 (not p20) (not p23)) (or p5 p11 p6) (or p24 (not p24) (not p2)) (or (not p1) p17 (not p15)) (or p8 (not p15) p22) (or p14 p20 p16) (or p2 (not p15) p17) (or (not p13) (not p11) (not p2)) (or (not p7) p5 p3) (or p4 (not p23) p21) (or (not p20) p7 p15) (or (not p8) (not p8) (not p2)) (or p8 (not p2) p20) (or p23 (not p23) (not p2)) (or p23 p9 (not p24)) (or (not p1) p14 p18) (or (not p16) (not p5) p13) (or (not p5) (not p23) (not p3)) (or p6 (not p14) p22) (or (not p5) (not p12) (not p24)) (or (not p19) (not p1) (not p7)) (or p7 (not p19) (not p16)) (or (not p9) p23 p12) (or (not p22) p2 (not p5)) (or (not p17) (not p3) p16) (or (not p16) (not p5) p18) (or (not p13) (not p24) p16) (or (not p17) p19 p14) (or (not p13) (not p18) p24) (or p7 p14 p0) (or (not p6) (not p14) (not p6)) (or (not p1) p23 p21) (or p13 p15 (not p22)) (or p1 (not p17) (not p9)) (or (not p23) p17 (not p23)) (or (not p6) p20 p15) (or p20 (not p5) (not p23)) (or (not p9) (not p5) p2) (or p11 p9 (not p1)) (or p21 p1 (not p23)) (or (not p16) p16 p17) (or p3 p0 p22) (or (not p19) p11 p8) (or (not p4) p7 (not p14)) (or (not p0) (not p7) p7) (or (not p0) (not p10) p23) (or p16 p7 (not p8)) (or p24 (not p14) p20) (or (not p11) (not p13) p12) (or p19 (not p18) (not p3)) (or (not p16) (not p23) p13) (or p17 p8 p6) (or (not p22) (not p4) p4) (or (not p8) p23 p8) (or (not p9) p5 (not p22)) (or (not p12) (not p9) p7) (or p0 (not p22) (not p15)) (or p11 (not p9) p13) (or (not p6) p8 (not p23)) (or (not p14) (not p1) (not p18)) (or (not p0) p16 p22) (or p10 (not p13) (not p13)) (or (not p3) p7 p3) (or p1 (not p24) p8) (or p13 p19 (not p14)) (or p23 (not p0) p15) (or (not p2) (not p14) p11) (or (not p17) p17 p2) (or p10 (not p7) (not p0)) (or p22 p11 (not p5)) (or (not p8) (not p13) (not p22)) (or p20 (not p7) p2) (or p14 p10 (not p19)) (or p22 p11 (not p0)) (or (not p12) (not p17) p20) (or p16 p24 p14) (or (not p6) p18 p17) (or (not p9) (not p21) p23) (or p10 p9 (not p3)) (or p0 p0 p13) (or p5 (not p20) p15) (or p17 (not p23) p15) (or (not p14) (not p21) p8) (or p21 p14 (not p17)) (or p21 (not p7) p15) (or (not p10) p13 p2) (or (not p5) p16 (not p10)) (or p6 (not p12) (not p16)) (or p17 p13 (not p21)) (or p1 p16 p2) (or p7 (not p18) p23) (or (not p8) (not p11) p13) (or p5 p6 p6) (or (not p18) (not p12) (not p12)) (or (not p17) p7 (not p8)) (or (not p23) (not p18) p12))
)
(check-sat)
(get-model)
